N=10;
m=[
	[0 0 10 3 5 10 2 5 3 4]
	[0 0 8 7 4 4 8 6 5 8]
	[10 5 0 2 4 5 10 5 5 7]
	[3 6 9 0 3 9 1 7 7 4]
	[1 3 3 9 0 9 1 6 0 9]
	[2 4 9 4 8 0 2 8 0 2]
	[5 6 4 6 6 2 0 10 3 6]
	[8 3 7 7 7 9 5 0 2 4]
	[10 1 10 3 0 0 2 5 0 6]
	[10 2 1 6 10 3 7 10 8 0]
];
